sat
(:max-memory          18.49
 :memory              18.08
 :nlsat-conflicts     9
 :nlsat-decisions     10
 :nlsat-learned-added 9
 :nlsat-propagations  58
 :nlsat-stages        8
 :num-allocs          34071
 :rlimit-count        77852
 :time                0.05
 :total-time          0.06)
